100 8
748 824
705 656
369 712
367 764
308 228
503 734
242 536
316 234
923 777
721 710
830 700
299 676
116 824
790 717
914 711
671 452
218 340
923 121
775 596
826 226
327 707
732 702
682 529
748 513
897 689
284 382
65 741
215 591
96 535
243 191
268 235
604 730
85 749
814 698
448 124
139 475
228 668
225 352
560 800
334 611
869 551
127 887
818 157
191 719
233 336
228 781
702 601
331 624
888 68
153 885
202 889
225 807
839 148
383 207
235 652
312 369
606 786
812 747
879 820
502 167
301 570
732 727
157 841
219 488
488 765
845 190
758 525
814 67
847 643
288 383
241 235
131 439
180 397
332 343
759 462
848 300
134 750
776 739
371 779
165 621
273 370
65 767
955 181
237 724
203 400
858 617
471 411
431 764
689 223
827 63
949 114
851 46
782 431
666 411
731 564
100 749
208 756
626 674
237 465
236 407
